certificates/rado_a15_c65_N43.cnf
c Rad2 upper bound instance: x1 + 15*x2 - x3 = 65, interval [1,43]
p cnf 43 244
1 5 11 0
-1 -5 -11 0
1 6 26 0
-1 -6 -26 0
1 7 41 0
-1 -7 -41 0
2 5 12 0
-2 -5 -12 0
2 6 27 0
-2 -6 -27 0
2 7 42 0
-2 -7 -42 0
3 5 13 0
-3 -5 -13 0
3 6 28 0
-3 -6 -28 0
3 7 43 0
-3 -7 -43 0
4 5 14 0
-4 -5 -14 0
4 6 29 0
-4 -6 -29 0
5 15 0
-5 -15 0
5 6 30 0
-5 -6 -30 0
1 4 6 0
-1 -4 -6 0
5 6 16 0
-5 -6 -16 0
6 31 0
-6 -31 0
2 4 7 0
-2 -4 -7 0
5 7 17 0
-5 -7 -17 0
6 7 32 0
-6 -7 -32 0
3 4 8 0
-3 -4 -8 0
5 8 18 0
-5 -8 -18 0
6 8 33 0
-6 -8 -33 0
4 9 0
-4 -9 0
5 9 19 0
-5 -9 -19 0
6 9 34 0
-6 -9 -34 0
4 5 10 0
-4 -5 -10 0
5 10 20 0
-5 -10 -20 0
6 10 35 0
-6 -10 -35 0
4 6 11 0
-4 -6 -11 0
5 11 21 0
-5 -11 -21 0
6 11 36 0
-6 -11 -36 0
4 7 12 0
-4 -7 -12 0
5 12 22 0
-5 -12 -22 0
6 12 37 0
-6 -12 -37 0
4 8 13 0
-4 -8 -13 0
5 13 23 0
-5 -13 -23 0
6 13 38 0
-6 -13 -38 0
4 9 14 0
-4 -9 -14 0
5 14 24 0
-5 -14 -24 0
6 14 39 0
-6 -14 -39 0
4 10 15 0
-4 -10 -15 0
5 15 25 0
-5 -15 -25 0
6 15 40 0
-6 -15 -40 0
4 11 16 0
-4 -11 -16 0
5 16 26 0
-5 -16 -26 0
6 16 41 0
-6 -16 -41 0
4 12 17 0
-4 -12 -17 0
5 17 27 0
-5 -17 -27 0
6 17 42 0
-6 -17 -42 0
4 13 18 0
-4 -13 -18 0
5 18 28 0
-5 -18 -28 0
6 18 43 0
-6 -18 -43 0
4 14 19 0
-4 -14 -19 0
5 19 29 0
-5 -19 -29 0
4 15 20 0
-4 -15 -20 0
5 20 30 0
-5 -20 -30 0
1 3 21 0
-1 -3 -21 0
4 16 21 0
-4 -16 -21 0
5 21 31 0
-5 -21 -31 0
2 3 22 0
-2 -3 -22 0
4 17 22 0
-4 -17 -22 0
5 22 32 0
-5 -22 -32 0
3 23 0
-3 -23 0
4 18 23 0
-4 -18 -23 0
5 23 33 0
-5 -23 -33 0
3 4 24 0
-3 -4 -24 0
4 19 24 0
-4 -19 -24 0
5 24 34 0
-5 -24 -34 0
3 5 25 0
-3 -5 -25 0
4 20 25 0
-4 -20 -25 0
5 25 35 0
-5 -25 -35 0
3 6 26 0
-3 -6 -26 0
4 21 26 0
-4 -21 -26 0
5 26 36 0
-5 -26 -36 0
3 7 27 0
-3 -7 -27 0
4 22 27 0
-4 -22 -27 0
5 27 37 0
-5 -27 -37 0
3 8 28 0
-3 -8 -28 0
4 23 28 0
-4 -23 -28 0
5 28 38 0
-5 -28 -38 0
3 9 29 0
-3 -9 -29 0
4 24 29 0
-4 -24 -29 0
5 29 39 0
-5 -29 -39 0
3 10 30 0
-3 -10 -30 0
4 25 30 0
-4 -25 -30 0
5 30 40 0
-5 -30 -40 0
3 11 31 0
-3 -11 -31 0
4 26 31 0
-4 -26 -31 0
5 31 41 0
-5 -31 -41 0
3 12 32 0
-3 -12 -32 0
4 27 32 0
-4 -27 -32 0
5 32 42 0
-5 -32 -42 0
3 13 33 0
-3 -13 -33 0
4 28 33 0
-4 -28 -33 0
5 33 43 0
-5 -33 -43 0
3 14 34 0
-3 -14 -34 0
4 29 34 0
-4 -29 -34 0
3 15 35 0
-3 -15 -35 0
4 30 35 0
-4 -30 -35 0
1 2 36 0
-1 -2 -36 0
3 16 36 0
-3 -16 -36 0
4 31 36 0
-4 -31 -36 0
2 37 0
-2 -37 0
3 17 37 0
-3 -17 -37 0
4 32 37 0
-4 -32 -37 0
2 3 38 0
-2 -3 -38 0
3 18 38 0
-3 -18 -38 0
4 33 38 0
-4 -33 -38 0
2 4 39 0
-2 -4 -39 0
3 19 39 0
-3 -19 -39 0
4 34 39 0
-4 -34 -39 0
2 5 40 0
-2 -5 -40 0
3 20 40 0
-3 -20 -40 0
4 35 40 0
-4 -35 -40 0
2 6 41 0
-2 -6 -41 0
3 21 41 0
-3 -21 -41 0
4 36 41 0
-4 -36 -41 0
3 22 42 0
-3 -22 -42 0
4 37 42 0
-4 -37 -42 0
2 8 43 0
-2 -8 -43 0
3 23 43 0
-3 -23 -43 0
4 38 43 0
-4 -38 -43 0
