certificates/rado_a15_c65_N43.drat
2 4 -41 -43 0
-38 -41 -43 0
4 -41 -43 0
d 2 4 -41 -43 0
-41 -42 -43 0
-4 41 -42 0
6 4 41 0
4 41 0
d 4 36 41 0
41 -42 0
d -4 41 -42 0
-42 -43 0
d -41 -42 -43 0
-6 41 -43 0
41 -43 0
d -6 41 -43 0
-31 -43 0
-41 -43 0
d 4 -41 -43 0
-43 0
-6 -4 -41 0
-4 -41 0
d -4 -36 -41 0
6 -41 0
-41 0
-42 0
4 0
-9 0
-6 0
31 0
2 0
18 0
16 0
34 0
17 0
-36 0
-26 0
-37 0
-7 0
-39 0
-23 0
-13 0
-21 0
-11 0
-29 0
-22 0
-12 0
0
